p edge 200 3980
e 1 2
e 1 3
e 1 10
e 1 12
e 1 16
e 1 18
e 1 21
e 1 24
e 1 25
e 1 28
e 1 30
e 1 37
e 1 42
e 1 48
e 1 62
e 1 68
e 1 71
e 1 83
e 1 89
e 1 90
e 1 97
e 1 99
e 1 117
e 1 119
e 1 141
e 1 142
e 1 146
e 1 152
e 1 156
e 1 160
e 1 165
e 1 170
e 1 177
e 1 180
e 1 185
e 1 189
e 1 192
e 1 195
e 1 197
e 1 198
e 2 5
e 2 21
e 2 23
e 2 28
e 2 29
e 2 34
e 2 37
e 2 41
e 2 45
e 2 46
e 2 53
e 2 65
e 2 70
e 2 75
e 2 77
e 2 79
e 2 84
e 2 90
e 2 91
e 2 92
e 2 97
e 2 107
e 2 122
e 2 131
e 2 133
e 2 135
e 2 144
e 2 151
e 2 153
e 2 156
e 2 158
e 2 159
e 2 160
e 2 164
e 2 171
e 2 178
e 2 190
e 3 8
e 3 17
e 3 22
e 3 27
e 3 36
e 3 43
e 3 46
e 3 47
e 3 50
e 3 51
e 3 53
e 3 61
e 3 62
e 3 67
e 3 68
e 3 70
e 3 71
e 3 86
e 3 90
e 3 94
e 3 95
e 3 103
e 3 104
e 3 105
e 3 119
e 3 120
e 3 121
e 3 122
e 3 127
e 3 129
e 3 130
e 3 137
e 3 143
e 3 153
e 3 155
e 3 159
e 3 172
e 3 175
e 3 179
e 3 182
e 3 183
e 3 190
e 4 5
e 4 13
e 4 20
e 4 26
e 4 37
e 4 46
e 4 57
e 4 70
e 4 74
e 4 76
e 4 78
e 4 80
e 4 82
e 4 90
e 4 96
e 4 107
e 4 111
e 4 116
e 4 118
e 4 129
e 4 132
e 4 136
e 4 137
e 4 140
e 4 142
e 4 143
e 4 155
e 4 163
e 4 167
e 4 173
e 4 174
e 4 176
e 4 177
e 4 178
e 4 180
e 4 181
e 4 182
e 4 184
e 4 197
e 5 10
e 5 13
e 5 14
e 5 16
e 5 21
e 5 24
e 5 25
e 5 36
e 5 37
e 5 46
e 5 48
e 5 57
e 5 59
e 5 72
e 5 73
e 5 74
e 5 78
e 5 82
e 5 95
e 5 98
e 5 99
e 5 104
e 5 110
e 5 113
e 5 115
e 5 119
e 5 121
e 5 123
e 5 127
e 5 132
e 5 141
e 5 148
e 5 149
e 5 157
e 5 167
e 5 172
e 5 178
e 5 180
e 5 182
e 5 186
e 5 197
e 6 13
e 6 14
e 6 16
e 6 17
e 6 26
e 6 27
e 6 28
e 6 35
e 6 41
e 6 42
e 6 43
e 6 44
e 6 48
e 6 52
e 6 55
e 6 56
e 6 73
e 6 74
e 6 82
e 6 85
e 6 88
e 6 102
e 6 108
e 6 110
e 6 111
e 6 113
e 6 116
e 6 118
e 6 121
e 6 123
e 6 130
e 6 136
e 6 140
e 6 144
e 6 145
e 6 152
e 6 165
e 6 168
e 6 177
e 6 181
e 6 186
e 6 190
e 6 197
e 6 199
e 7 9
e 7 12
e 7 16
e 7 17
e 7 19
e 7 20
e 7 28
e 7 35
e 7 40
e 7 48
e 7 50
e 7 54
e 7 57
e 7 59
e 7 64
e 7 65
e 7 66
e 7 71
e 7 77
e 7 82
e 7 83
e 7 86
e 7 87
e 7 91
e 7 96
e 7 101
e 7 109
e 7 113
e 7 114
e 7 119
e 7 122
e 7 124
e 7 125
e 7 126
e 7 127
e 7 128
e 7 135
e 7 140
e 7 147
e 7 148
e 7 157
e 7 159
e 7 160
e 7 173
e 7 184
e 7 185
e 7 187
e 7 188
e 7 198
e 7 199
e 8 12
e 8 14
e 8 18
e 8 23
e 8 26
e 8 31
e 8 34
e 8 35
e 8 36
e 8 38
e 8 40
e 8 44
e 8 49
e 8 50
e 8 51
e 8 52
e 8 66
e 8 73
e 8 79
e 8 83
e 8 86
e 8 87
e 8 90
e 8 92
e 8 98
e 8 99
e 8 103
e 8 105
e 8 106
e 8 115
e 8 118
e 8 125
e 8 128
e 8 131
e 8 133
e 8 135
e 8 138
e 8 140
e 8 159
e 8 161
e 8 166
e 8 173
e 8 183
e 8 200
e 9 16
e 9 17
e 9 28
e 9 30
e 9 33
e 9 34
e 9 37
e 9 38
e 9 39
e 9 46
e 9 49
e 9 52
e 9 56
e 9 68
e 9 72
e 9 73
e 9 87
e 9 89
e 9 90
e 9 96
e 9 100
e 9 103
e 9 112
e 9 123
e 9 127
e 9 129
e 9 130
e 9 135
e 9 136
e 9 142
e 9 147
e 9 153
e 9 159
e 9 165
e 9 176
e 9 178
e 9 181
e 9 189
e 9 196
e 9 197
e 9 198
e 10 11
e 10 15
e 10 21
e 10 23
e 10 31
e 10 49
e 10 82
e 10 85
e 10 86
e 10 90
e 10 97
e 10 112
e 10 116
e 10 118
e 10 119
e 10 125
e 10 131
e 10 135
e 10 141
e 10 143
e 10 150
e 10 151
e 10 156
e 10 164
e 10 168
e 10 181
e 11 22
e 11 26
e 11 28
e 11 39
e 11 41
e 11 42
e 11 49
e 11 52
e 11 55
e 11 64
e 11 72
e 11 75
e 11 84
e 11 90
e 11 93
e 11 99
e 11 103
e 11 108
e 11 119
e 11 126
e 11 140
e 11 143
e 11 153
e 11 154
e 11 156
e 11 160
e 11 162
e 11 170
e 11 179
e 11 180
e 11 186
e 11 187
e 11 189
e 11 191
e 11 194
e 11 197
e 11 199
e 11 200
e 12 16
e 12 18
e 12 28
e 12 38
e 12 49
e 12 51
e 12 54
e 12 62
e 12 69
e 12 70
e 12 74
e 12 78
e 12 96
e 12 104
e 12 105
e 12 106
e 12 107
e 12 109
e 12 114
e 12 117
e 12 122
e 12 124
e 12 131
e 12 139
e 12 146
e 12 150
e 12 152
e 12 163
e 12 167
e 12 180
e 12 184
e 12 193
e 12 198
e 13 18
e 13 21
e 13 44
e 13 55
e 13 57
e 13 64
e 13 72
e 13 73
e 13 76
e 13 94
e 13 96
e 13 97
e 13 99
e 13 112
e 13 113
e 13 114
e 13 118
e 13 120
e 13 122
e 13 125
e 13 127
e 13 144
e 13 145
e 13 146
e 13 153
e 13 154
e 13 158
e 13 163
e 13 165
e 13 166
e 13 172
e 13 173
e 13 181
e 13 184
e 13 186
e 13 193
e 13 195
e 14 17
e 14 20
e 14 24
e 14 28
e 14 36
e 14 49
e 14 52
e 14 57
e 14 59
e 14 67
e 14 69
e 14 77
e 14 78
e 14 80
e 14 81
e 14 85
e 14 100
e 14 104
e 14 113
e 14 114
e 14 119
e 14 120
e 14 124
e 14 126
e 14 128
e 14 132
e 14 134
e 14 135
e 14 139
e 14 143
e 14 146
e 14 161
e 14 171
e 14 186
e 14 195
e 14 199
e 15 19
e 15 24
e 15 31
e 15 39
e 15 46
e 15 48
e 15 50
e 15 54
e 15 57
e 15 71
e 15 72
e 15 82
e 15 90
e 15 103
e 15 105
e 15 106
e 15 109
e 15 111
e 15 112
e 15 115
e 15 116
e 15 125
e 15 128
e 15 140
e 15 150
e 15 153
e 15 162
e 15 167
e 15 169
e 15 171
e 15 187
e 15 199
e 16 30
e 16 49
e 16 54
e 16 55
e 16 57
e 16 66
e 16 70
e 16 71
e 16 72
e 16 75
e 16 89
e 16 97
e 16 113
e 16 124
e 16 125
e 16 129
e 16 139
e 16 144
e 16 146
e 16 154
e 16 160
e 16 162
e 16 169
e 16 171
e 16 175
e 16 181
e 16 200
e 17 23
e 17 26
e 17 27
e 17 28
e 17 29
e 17 32
e 17 40
e 17 46
e 17 60
e 17 68
e 17 72
e 17 88
e 17 110
e 17 112
e 17 122
e 17 124
e 17 125
e 17 129
e 17 134
e 17 142
e 17 144
e 17 146
e 17 148
e 17 152
e 17 155
e 17 160
e 17 162
e 17 163
e 17 166
e 17 168
e 17 169
e 17 172
e 17 174
e 17 175
e 17 177
e 17 179
e 17 182
e 17 191
e 17 195
e 17 196
e 17 197
e 18 19
e 18 20
e 18 21
e 18 26
e 18 30
e 18 32
e 18 37
e 18 40
e 18 48
e 18 50
e 18 63
e 18 74
e 18 82
e 18 86
e 18 87
e 18 91
e 18 96
e 18 106
e 18 109
e 18 122
e 18 126
e 18 132
e 18 133
e 18 137
e 18 141
e 18 148
e 18 154
e 18 178
e 18 179
e 18 184
e 18 185
e 18 186
e 18 198
e 18 200
e 19 21
e 19 24
e 19 30
e 19 32
e 19 41
e 19 42
e 19 58
e 19 59
e 19 65
e 19 68
e 19 81
e 19 88
e 19 92
e 19 96
e 19 106
e 19 108
e 19 110
e 19 112
e 19 121
e 19 125
e 19 130
e 19 131
e 19 132
e 19 137
e 19 145
e 19 146
e 19 148
e 19 154
e 19 157
e 19 162
e 19 165
e 19 169
e 19 170
e 19 188
e 20 24
e 20 26
e 20 29
e 20 36
e 20 38
e 20 44
e 20 47
e 20 55
e 20 56
e 20 57
e 20 73
e 20 81
e 20 93
e 20 99
e 20 105
e 20 120
e 20 121
e 20 129
e 20 141
e 20 142
e 20 150
e 20 151
e 20 155
e 20 163
e 20 168
e 20 173
e 20 176
e 20 177
e 20 180
e 20 183
e 20 191
e 20 200
e 21 24
e 21 30
e 21 31
e 21 39
e 21 40
e 21 42
e 21 51
e 21 53
e 21 54
e 21 55
e 21 61
e 21 66
e 21 67
e 21 71
e 21 76
e 21 78
e 21 84
e 21 85
e 21 88
e 21 91
e 21 100
e 21 102
e 21 104
e 21 108
e 21 142
e 21 143
e 21 146
e 21 153
e 21 155
e 21 164
e 21 166
e 21 174
e 21 179
e 21 185
e 21 187
e 21 188
e 21 195
e 21 196
e 22 26
e 22 27
e 22 29
e 22 33
e 22 55
e 22 58
e 22 72
e 22 74
e 22 76
e 22 77
e 22 78
e 22 82
e 22 92
e 22 98
e 22 100
e 22 105
e 22 110
e 22 111
e 22 112
e 22 115
e 22 120
e 22 121
e 22 122
e 22 125
e 22 126
e 22 134
e 22 165
e 22 166
e 22 173
e 22 185
e 22 191
e 23 26
e 23 30
e 23 35
e 23 43
e 23 46
e 23 47
e 23 49
e 23 53
e 23 56
e 23 57
e 23 58
e 23 65
e 23 68
e 23 71
e 23 73
e 23 80
e 23 84
e 23 86
e 23 87
e 23 89
e 23 93
e 23 97
e 23 102
e 23 104
e 23 105
e 23 108
e 23 117
e 23 119
e 23 120
e 23 125
e 23 127
e 23 130
e 23 133
e 23 134
e 23 144
e 23 151
e 23 155
e 23 158
e 23 159
e 23 170
e 23 183
e 23 184
e 23 189
e 24 26
e 24 33
e 24 35
e 24 36
e 24 41
e 24 50
e 24 52
e 24 55
e 24 56
e 24 58
e 24 62
e 24 65
e 24 70
e 24 76
e 24 84
e 24 94
e 24 95
e 24 100
e 24 109
e 24 115
e 24 122
e 24 123
e 24 127
e 24 129
e 24 139
e 24 142
e 24 143
e 24 144
e 24 154
e 24 158
e 24 159
e 24 164
e 24 165
e 24 175
e 24 181
e 24 182
e 24 190
e 24 192
e 24 193
e 24 195
e 25 32
e 25 34
e 25 35
e 25 36
e 25 38
e 25 47
e 25 50
e 25 54
e 25 64
e 25 65
e 25 79
e 25 92
e 25 96
e 25 111
e 25 112
e 25 114
e 25 115
e 25 123
e 25 127
e 25 129
e 25 130
e 25 134
e 25 140
e 25 141
e 25 144
e 25 145
e 25 148
e 25 152
e 25 153
e 25 173
e 25 178
e 25 186
e 25 192
e 25 193
e 25 196
e 25 200
e 26 30
e 26 37
e 26 41
e 26 44
e 26 51
e 26 56
e 26 63
e 26 64
e 26 74
e 26 80
e 26 83
e 26 85
e 26 90
e 26 100
e 26 101
e 26 105
e 26 112
e 26 117
e 26 122
e 26 124
e 26 126
e 26 129
e 26 132
e 26 157
e 26 163
e 26 167
e 26 168
e 26 174
e 26 191
e 26 196
e 27 30
e 27 32
e 27 47
e 27 50
e 27 51
e 27 55
e 27 56
e 27 59
e 27 63
e 27 70
e 27 74
e 27 75
e 27 76
e 27 79
e 27 89
e 27 93
e 27 100
e 27 101
e 27 108
e 27 111
e 27 121
e 27 124
e 27 131
e 27 132
e 27 133
e 27 138
e 27 141
e 27 146
e 27 147
e 27 158
e 27 169
e 27 181
e 27 184
e 27 185
e 27 188
e 27 189
e 27 190
e 27 195
e 28 29
e 28 34
e 28 39
e 28 40
e 28 42
e 28 47
e 28 53
e 28 54
e 28 55
e 28 56
e 28 61
e 28 75
e 28 76
e 28 77
e 28 79
e 28 82
e 28 95
e 28 96
e 28 105
e 28 111
e 28 115
e 28 123
e 28 126
e 28 128
e 28 132
e 28 138
e 28 142
e 28 145
e 28 154
e 28 172
e 28 177
e 28 184
e 29 32
e 29 36
e 29 42
e 29 58
e 29 61
e 29 65
e 29 70
e 29 72
e 29 82
e 29 83
e 29 84
e 29 85
e 29 89
e 29 95
e 29 113
e 29 115
e 29 117
e 29 121
e 29 124
e 29 130
e 29 144
e 29 147
e 29 148
e 29 154
e 29 159
e 29 163
e 29 171
e 29 172
e 29 175
e 29 177
e 29 181
e 29 187
e 29 193
e 30 31
e 30 41
e 30 47
e 30 51
e 30 52
e 30 55
e 30 57
e 30 58
e 30 68
e 30 71
e 30 78
e 30 102
e 30 110
e 30 116
e 30 122
e 30 128
e 30 145
e 30 150
e 30 159
e 30 164
e 30 167
e 30 168
e 30 170
e 30 174
e 30 176
e 30 180
e 30 182
e 30 186
e 30 197
e 31 34
e 31 37
e 31 45
e 31 50
e 31 51
e 31 61
e 31 66
e 31 67
e 31 68
e 31 71
e 31 77
e 31 80
e 31 83
e 31 84
e 31 87
e 31 98
e 31 101
e 31 103
e 31 104
e 31 105
e 31 106
e 31 111
e 31 118
e 31 123
e 31 142
e 31 152
e 31 161
e 31 164
e 31 170
e 31 171
e 31 174
e 31 175
e 31 180
e 31 183
e 31 188
e 31 199
e 31 200
e 32 36
e 32 44
e 32 49
e 32 50
e 32 65
e 32 68
e 32 73
e 32 74
e 32 75
e 32 77
e 32 78
e 32 87
e 32 88
e 32 92
e 32 93
e 32 95
e 32 103
e 32 131
e 32 133
e 32 139
e 32 141
e 32 143
e 32 150
e 32 151
e 32 154
e 32 155
e 32 167
e 32 169
e 32 172
e 32 174
e 32 177
e 32 181
e 32 186
e 32 188
e 32 189
e 32 196
e 33 34
e 33 39
e 33 53
e 33 64
e 33 65
e 33 75
e 33 81
e 33 83
e 33 94
e 33 98
e 33 110
e 33 118
e 33 120
e 33 122
e 33 126
e 33 128
e 33 129
e 33 136
e 33 138
e 33 139
e 33 164
e 33 167
e 33 172
e 33 174
e 33 178
e 33 182
e 33 185
e 33 193
e 33 198
e 34 35
e 34 36
e 34 42
e 34 51
e 34 52
e 34 57
e 34 59
e 34 60
e 34 62
e 34 64
e 34 81
e 34 87
e 34 91
e 34 98
e 34 100
e 34 104
e 34 105
e 34 111
e 34 113
e 34 128
e 34 139
e 34 141
e 34 150
e 34 151
e 34 153
e 34 158
e 34 162
e 34 163
e 34 169
e 34 170
e 34 171
e 34 176
e 34 200
e 35 45
e 35 51
e 35 54
e 35 55
e 35 56
e 35 58
e 35 61
e 35 66
e 35 68
e 35 70
e 35 73
e 35 81
e 35 83
e 35 86
e 35 87
e 35 89
e 35 91
e 35 92
e 35 93
e 35 95
e 35 99
e 35 101
e 35 117
e 35 122
e 35 128
e 35 130
e 35 134
e 35 135
e 35 151
e 35 159
e 35 164
e 35 166
e 35 169
e 35 174
e 35 179
e 35 182
e 35 189
e 35 199
e 36 72
e 36 80
e 36 85
e 36 86
e 36 87
e 36 96
e 36 98
e 36 108
e 36 110
e 36 114
e 36 118
e 36 120
e 36 123
e 36 137
e 36 143
e 36 146
e 36 159
e 36 163
e 36 164
e 36 166
e 36 170
e 36 172
e 36 176
e 36 182
e 36 199
e 37 45
e 37 46
e 37 50
e 37 54
e 37 58
e 37 64
e 37 76
e 37 81
e 37 87
e 37 101
e 37 102
e 37 103
e 37 115
e 37 124
e 37 125
e 37 130
e 37 131
e 37 135
e 37 139
e 37 148
e 37 158
e 37 164
e 37 165
e 37 168
e 37 178
e 37 186
e 37 192
e 37 198
e 37 200
e 38 39
e 38 42
e 38 49
e 38 55
e 38 62
e 38 71
e 38 78
e 38 81
e 38 86
e 38 89
e 38 94
e 38 98
e 38 100
e 38 105
e 38 106
e 38 107
e 38 109
e 38 110
e 38 113
e 38 120
e 38 121
e 38 123
e 38 136
e 38 138
e 38 139
e 38 145
e 38 158
e 38 162
e 38 163
e 38 164
e 38 165
e 38 168
e 38 185
e 38 187
e 38 193
e 38 197
e 38 198
e 39 41
e 39 43
e 39 47
e 39 60
e 39 66
e 39 70
e 39 76
e 39 88
e 39 96
e 39 102
e 39 103
e 39 107
e 39 110
e 39 146
e 39 155
e 39 163
e 39 166
e 39 183
e 39 185
e 39 193
e 39 200
e 40 51
e 40 54
e 40 58
e 40 64
e 40 67
e 40 74
e 40 75
e 40 76
e 40 83
e 40 87
e 40 103
e 40 104
e 40 118
e 40 130
e 40 131
e 40 133
e 40 136
e 40 137
e 40 151
e 40 167
e 40 169
e 40 170
e 40 171
e 40 172
e 40 173
e 40 174
e 40 175
e 40 176
e 40 183
e 40 192
e 41 51
e 41 60
e 41 70
e 41 90
e 41 92
e 41 94
e 41 99
e 41 100
e 41 114
e 41 116
e 41 117
e 41 122
e 41 128
e 41 132
e 41 136
e 41 142
e 41 144
e 41 145
e 41 150
e 41 157
e 41 159
e 41 162
e 41 165
e 41 166
e 41 167
e 41 170
e 41 172
e 41 186
e 41 196
e 41 198
e 42 44
e 42 52
e 42 56
e 42 59
e 42 60
e 42 69
e 42 74
e 42 76
e 42 79
e 42 98
e 42 111
e 42 116
e 42 123
e 42 147
e 42 158
e 42 162
e 42 163
e 42 176
e 42 185
e 42 188
e 42 193
e 43 44
e 43 51
e 43 53
e 43 54
e 43 57
e 43 58
e 43 60
e 43 61
e 43 64
e 43 72
e 43 75
e 43 77
e 43 82
e 43 86
e 43 90
e 43 92
e 43 95
e 43 97
e 43 102
e 43 106
e 43 110
e 43 112
e 43 116
e 43 117
e 43 119
e 43 135
e 43 137
e 43 143
e 43 148
e 43 152
e 43 155
e 43 167
e 43 171
e 43 174
e 43 184
e 43 186
e 43 188
e 43 189
e 44 46
e 44 48
e 44 50
e 44 53
e 44 56
e 44 61
e 44 69
e 44 70
e 44 73
e 44 74
e 44 81
e 44 93
e 44 95
e 44 97
e 44 100
e 44 101
e 44 106
e 44 107
e 44 125
e 44 128
e 44 136
e 44 160
e 44 161
e 44 164
e 44 165
e 44 173
e 44 177
e 44 179
e 44 182
e 44 190
e 45 47
e 45 60
e 45 74
e 45 91
e 45 92
e 45 97
e 45 98
e 45 112
e 45 114
e 45 119
e 45 120
e 45 121
e 45 126
e 45 128
e 45 137
e 45 138
e 45 140
e 45 152
e 45 153
e 45 156
e 45 165
e 45 168
e 45 172
e 45 177
e 45 180
e 45 181
e 45 194
e 46 59
e 46 71
e 46 73
e 46 77
e 46 80
e 46 88
e 46 93
e 46 95
e 46 97
e 46 119
e 46 130
e 46 131
e 46 141
e 46 143
e 46 145
e 46 147
e 46 154
e 46 156
e 46 168
e 46 173
e 46 185
e 47 49
e 47 54
e 47 59
e 47 64
e 47 66
e 47 68
e 47 71
e 47 73
e 47 79
e 47 80
e 47 81
e 47 86
e 47 89
e 47 94
e 47 98
e 47 101
e 47 103
e 47 109
e 47 110
e 47 112
e 47 116
e 47 117
e 47 118
e 47 120
e 47 122
e 47 124
e 47 127
e 47 131
e 47 133
e 47 135
e 47 140
e 47 144
e 47 145
e 47 154
e 47 164
e 47 182
e 47 186
e 47 188
e 47 193
e 47 194
e 48 54
e 48 56
e 48 59
e 48 60
e 48 67
e 48 69
e 48 81
e 48 85
e 48 86
e 48 89
e 48 94
e 48 109
e 48 117
e 48 120
e 48 124
e 48 125
e 48 126
e 48 137
e 48 140
e 48 144
e 48 160
e 48 161
e 48 176
e 48 182
e 48 185
e 49 56
e 49 57
e 49 60
e 49 68
e 49 72
e 49 73
e 49 81
e 49 86
e 49 88
e 49 100
e 49 102
e 49 123
e 49 124
e 49 126
e 49 137
e 49 142
e 49 153
e 49 156
e 49 158
e 49 172
e 49 178
e 49 192
e 49 194
e 49 195
e 49 200
e 50 56
e 50 57
e 50 58
e 50 64
e 50 69
e 50 72
e 50 76
e 50 77
e 50 87
e 50 88
e 50 90
e 50 92
e 50 94
e 50 96
e 50 97
e 50 112
e 50 113
e 50 115
e 50 123
e 50 127
e 50 130
e 50 135
e 50 136
e 50 138
e 50 140
e 50 141
e 50 149
e 50 150
e 50 154
e 50 155
e 50 161
e 50 162
e 50 170
e 50 171
e 50 175
e 50 182
e 50 187
e 50 189
e 50 192
e 50 197
e 51 52
e 51 54
e 51 59
e 51 69
e 51 76
e 51 77
e 51 87
e 51 89
e 51 93
e 51 99
e 51 101
e 51 102
e 51 107
e 51 112
e 51 118
e 51 120
e 51 126
e 51 127
e 51 129
e 51 134
e 51 138
e 51 152
e 51 161
e 51 166
e 51 168
e 51 175
e 51 189
e 51 191
e 51 195
e 51 197
e 52 54
e 52 55
e 52 61
e 52 63
e 52 72
e 52 76
e 52 79
e 52 81
e 52 82
e 52 95
e 52 96
e 52 98
e 52 108
e 52 115
e 52 117
e 52 119
e 52 123
e 52 125
e 52 127
e 52 131
e 52 139
e 52 143
e 52 145
e 52 147
e 52 150
e 52 152
e 52 160
e 52 162
e 52 163
e 52 177
e 52 188
e 52 191
e 52 194
e 52 196
e 52 197
e 53 57
e 53 59
e 53 62
e 53 75
e 53 76
e 53 77
e 53 80
e 53 83
e 53 85
e 53 87
e 53 95
e 53 97
e 53 101
e 53 109
e 53 110
e 53 114
e 53 122
e 53 124
e 53 125
e 53 128
e 53 141
e 53 159
e 53 160
e 53 167
e 53 171
e 53 174
e 53 175
e 53 189
e 53 190
e 53 191
e 53 196
e 53 200
e 54 55
e 54 58
e 54 62
e 54 77
e 54 79
e 54 89
e 54 90
e 54 96
e 54 99
e 54 114
e 54 120
e 54 128
e 54 133
e 54 134
e 54 139
e 54 145
e 54 160
e 54 162
e 54 172
e 54 178
e 54 180
e 54 188
e 54 193
e 55 60
e 55 62
e 55 77
e 55 78
e 55 81
e 55 84
e 55 85
e 55 87
e 55 92
e 55 94
e 55 98
e 55 104
e 55 107
e 55 109
e 55 114
e 55 118
e 55 120
e 55 127
e 55 130
e 55 132
e 55 141
e 55 142
e 55 144
e 55 147
e 55 150
e 55 154
e 55 159
e 55 161
e 55 162
e 55 188
e 55 189
e 55 192
e 55 198
e 56 59
e 56 60
e 56 62
e 56 76
e 56 77
e 56 92
e 56 93
e 56 99
e 56 102
e 56 104
e 56 118
e 56 119
e 56 120
e 56 123
e 56 132
e 56 133
e 56 138
e 56 152
e 56 154
e 56 166
e 56 176
e 56 180
e 56 184
e 56 187
e 56 193
e 56 195
e 57 67
e 57 76
e 57 77
e 57 81
e 57 85
e 57 90
e 57 91
e 57 99
e 57 104
e 57 109
e 57 132
e 57 144
e 57 150
e 57 155
e 57 159
e 57 160
e 57 162
e 57 165
e 57 177
e 57 178
e 57 181
e 57 184
e 57 187
e 57 190
e 57 193
e 57 199
e 58 63
e 58 67
e 58 69
e 58 71
e 58 73
e 58 75
e 58 83
e 58 94
e 58 95
e 58 99
e 58 100
e 58 102
e 58 104
e 58 108
e 58 109
e 58 131
e 58 132
e 58 140
e 58 141
e 58 151
e 58 153
e 58 155
e 58 167
e 58 169
e 58 170
e 58 176
e 58 183
e 58 185
e 58 186
e 58 189
e 58 198
e 58 200
e 59 66
e 59 67
e 59 69
e 59 71
e 59 78
e 59 80
e 59 83
e 59 85
e 59 91
e 59 101
e 59 106
e 59 107
e 59 109
e 59 111
e 59 113
e 59 115
e 59 116
e 59 117
e 59 118
e 59 134
e 59 136
e 59 159
e 59 163
e 59 164
e 59 173
e 59 174
e 59 181
e 59 182
e 59 189
e 59 195
e 59 196
e 60 65
e 60 69
e 60 70
e 60 72
e 60 75
e 60 82
e 60 87
e 60 88
e 60 92
e 60 97
e 60 99
e 60 108
e 60 117
e 60 120
e 60 130
e 60 141
e 60 143
e 60 146
e 60 152
e 60 159
e 60 160
e 60 165
e 60 167
e 60 171
e 60 172
e 60 185
e 60 191
e 60 196
e 60 197
e 61 62
e 61 69
e 61 71
e 61 73
e 61 81
e 61 82
e 61 83
e 61 84
e 61 95
e 61 103
e 61 107
e 61 108
e 61 110
e 61 114
e 61 121
e 61 122
e 61 123
e 61 125
e 61 142
e 61 148
e 61 164
e 61 169
e 61 171
e 61 185
e 61 188
e 61 190
e 61 194
e 61 198
e 62 64
e 62 71
e 62 73
e 62 81
e 62 89
e 62 95
e 62 97
e 62 99
e 62 101
e 62 107
e 62 119
e 62 124
e 62 132
e 62 138
e 62 144
e 62 146
e 62 153
e 62 155
e 62 157
e 62 164
e 62 173
e 62 175
e 62 184
e 62 186
e 63 65
e 63 67
e 63 76
e 63 77
e 63 78
e 63 79
e 63 83
e 63 85
e 63 97
e 63 101
e 63 106
e 63 117
e 63 118
e 63 127
e 63 132
e 63 136
e 63 138
e 63 141
e 63 142
e 63 150
e 63 158
e 63 164
e 63 169
e 63 173
e 63 178
e 63 181
e 63 183
e 63 192
e 63 196
e 64 66
e 64 69
e 64 70
e 64 80
e 64 81
e 64 85
e 64 90
e 64 101
e 64 109
e 64 114
e 64 117
e 64 119
e 64 122
e 64 129
e 64 131
e 64 145
e 64 148
e 64 165
e 64 172
e 64 178
e 64 188
e 64 198
e 64 200
e 65 68
e 65 76
e 65 87
e 65 94
e 65 107
e 65 110
e 65 111
e 65 116
e 65 123
e 65 125
e 65 127
e 65 129
e 65 136
e 65 137
e 65 150
e 65 151
e 65 152
e 65 154
e 65 162
e 65 168
e 65 171
e 65 172
e 65 182
e 65 184
e 65 193
e 66 76
e 66 77
e 66 81
e 66 82
e 66 88
e 66 110
e 66 115
e 66 116
e 66 118
e 66 120
e 66 124
e 66 129
e 66 137
e 66 140
e 66 141
e 66 144
e 66 150
e 66 151
e 66 155
e 66 160
e 66 165
e 66 168
e 66 174
e 66 175
e 66 176
e 66 178
e 66 193
e 66 197
e 66 200
e 67 75
e 67 83
e 67 92
e 67 95
e 67 96
e 67 98
e 67 102
e 67 103
e 67 108
e 67 114
e 67 116
e 67 132
e 67 136
e 67 138
e 67 140
e 67 142
e 67 143
e 67 147
e 67 172
e 67 173
e 67 182
e 67 186
e 67 190
e 67 195
e 67 198
e 68 75
e 68 87
e 68 94
e 68 96
e 68 116
e 68 119
e 68 122
e 68 127
e 68 134
e 68 135
e 68 136
e 68 138
e 68 144
e 68 147
e 68 148
e 68 154
e 68 160
e 68 164
e 68 172
e 68 173
e 68 175
e 68 179
e 68 186
e 68 187
e 68 188
e 68 191
e 68 193
e 68 194
e 68 195
e 68 197
e 68 198
e 69 71
e 69 72
e 69 76
e 69 79
e 69 80
e 69 88
e 69 91
e 69 94
e 69 97
e 69 102
e 69 106
e 69 116
e 69 118
e 69 129
e 69 130
e 69 136
e 69 137
e 69 144
e 69 145
e 69 154
e 69 158
e 69 164
e 69 169
e 69 171
e 69 176
e 69 180
e 69 186
e 69 191
e 69 192
e 69 194
e 70 71
e 70 73
e 70 90
e 70 93
e 70 98
e 70 106
e 70 107
e 70 108
e 70 116
e 70 120
e 70 121
e 70 125
e 70 130
e 70 134
e 70 144
e 70 149
e 70 152
e 70 156
e 70 160
e 70 163
e 70 172
e 70 185
e 70 194
e 70 196
e 71 76
e 71 78
e 71 94
e 71 96
e 71 103
e 71 104
e 71 109
e 71 114
e 71 125
e 71 132
e 71 136
e 71 141
e 71 142
e 71 147
e 71 148
e 71 154
e 71 155
e 71 164
e 71 165
e 71 171
e 71 197
e 72 80
e 72 83
e 72 91
e 72 92
e 72 102
e 72 103
e 72 106
e 72 108
e 72 109
e 72 114
e 72 115
e 72 117
e 72 126
e 72 135
e 72 143
e 72 146
e 72 167
e 72 172
e 72 178
e 72 184
e 72 194
e 72 200
e 73 77
e 73 84
e 73 85
e 73 86
e 73 88
e 73 93
e 73 95
e 73 96
e 73 100
e 73 101
e 73 103
e 73 104
e 73 106
e 73 112
e 73 113
e 73 118
e 73 119
e 73 120
e 73 124
e 73 126
e 73 131
e 73 137
e 73 154
e 73 157
e 73 160
e 73 169
e 73 172
e 73 181
e 73 184
e 73 187
e 73 191
e 73 200
e 74 75
e 74 78
e 74 82
e 74 93
e 74 94
e 74 95
e 74 104
e 74 111
e 74 113
e 74 115
e 74 122
e 74 123
e 74 129
e 74 134
e 74 142
e 74 144
e 74 145
e 74 154
e 74 159
e 74 166
e 74 171
e 74 178
e 74 181
e 74 189
e 74 196
e 75 80
e 75 81
e 75 91
e 75 93
e 75 98
e 75 122
e 75 124
e 75 129
e 75 139
e 75 144
e 75 148
e 75 149
e 75 152
e 75 169
e 75 171
e 75 176
e 75 187
e 75 195
e 75 197
e 76 80
e 76 81
e 76 86
e 76 89
e 76 90
e 76 92
e 76 95
e 76 97
e 76 98
e 76 110
e 76 112
e 76 122
e 76 127
e 76 128
e 76 130
e 76 131
e 76 132
e 76 133
e 76 151
e 76 156
e 76 163
e 76 165
e 76 173
e 76 180
e 76 187
e 76 193
e 76 196
e 76 199
e 77 80
e 77 82
e 77 85
e 77 94
e 77 98
e 77 99
e 77 100
e 77 104
e 77 109
e 77 112
e 77 114
e 77 117
e 77 120
e 77 123
e 77 125
e 77 133
e 77 136
e 77 141
e 77 145
e 77 149
e 77 150
e 77 156
e 77 157
e 77 159
e 77 161
e 77 164
e 77 167
e 77 170
e 77 176
e 77 177
e 77 178
e 77 182
e 77 185
e 77 187
e 77 196
e 77 200
e 78 83
e 78 85
e 78 89
e 78 91
e 78 94
e 78 98
e 78 99
e 78 100
e 78 104
e 78 105
e 78 106
e 78 110
e 78 119
e 78 125
e 78 126
e 78 129
e 78 130
e 78 144
e 78 145
e 78 157
e 78 162
e 78 165
e 78 167
e 78 169
e 78 171
e 78 178
e 78 179
e 78 182
e 78 183
e 78 186
e 78 189
e 78 194
e 79 85
e 79 88
e 79 98
e 79 104
e 79 106
e 79 107
e 79 111
e 79 118
e 79 120
e 79 131
e 79 133
e 79 138
e 79 140
e 79 146
e 79 147
e 79 148
e 79 155
e 79 159
e 79 161
e 79 162
e 79 163
e 79 164
e 79 175
e 79 185
e 79 194
e 79 196
e 79 198
e 80 82
e 80 84
e 80 85
e 80 89
e 80 93
e 80 101
e 80 105
e 80 107
e 80 112
e 80 121
e 80 126
e 80 127
e 80 138
e 80 139
e 80 140
e 80 146
e 80 152
e 80 155
e 80 159
e 80 182
e 80 184
e 80 193
e 80 194
e 81 83
e 81 84
e 81 88
e 81 91
e 81 93
e 81 98
e 81 105
e 81 108
e 81 111
e 81 112
e 81 133
e 81 134
e 81 141
e 81 144
e 81 161
e 81 165
e 81 169
e 81 174
e 81 177
e 81 185
e 81 187
e 81 192
e 81 195
e 82 84
e 82 88
e 82 98
e 82 104
e 82 118
e 82 123
e 82 127
e 82 128
e 82 131
e 82 133
e 82 136
e 82 137
e 82 141
e 82 151
e 82 152
e 82 155
e 82 162
e 82 177
e 82 184
e 82 190
e 82 191
e 82 196
e 82 197
e 82 199
e 83 89
e 83 90
e 83 91
e 83 97
e 83 109
e 83 116
e 83 120
e 83 121
e 83 123
e 83 125
e 83 133
e 83 137
e 83 139
e 83 148
e 83 151
e 83 152
e 83 161
e 83 164
e 83 175
e 83 178
e 83 182
e 83 187
e 83 194
e 83 197
e 84 86
e 84 88
e 84 89
e 84 91
e 84 94
e 84 97
e 84 98
e 84 104
e 84 106
e 84 110
e 84 111
e 84 114
e 84 119
e 84 120
e 84 121
e 84 122
e 84 131
e 84 152
e 84 156
e 84 170
e 84 173
e 84 184
e 84 186
e 84 197
e 85 88
e 85 102
e 85 112
e 85 115
e 85 120
e 85 123
e 85 127
e 85 128
e 85 130
e 85 135
e 85 142
e 85 143
e 85 144
e 85 145
e 85 155
e 85 158
e 85 162
e 85 170
e 85 172
e 85 173
e 85 175
e 85 185
e 85 192
e 85 196
e 85 199
e 86 91
e 86 92
e 86 123
e 86 136
e 86 138
e 86 142
e 86 145
e 86 155
e 86 163
e 86 164
e 86 170
e 86 173
e 86 175
e 86 179
e 86 190
e 86 195
e 87 94
e 87 115
e 87 118
e 87 122
e 87 123
e 87 129
e 87 130
e 87 134
e 87 140
e 87 142
e 87 144
e 87 151
e 87 153
e 87 154
e 87 155
e 87 160
e 87 163
e 87 165
e 87 173
e 87 181
e 87 182
e 87 183
e 87 185
e 87 196
e 87 199
e 88 91
e 88 93
e 88 101
e 88 106
e 88 112
e 88 114
e 88 119
e 88 124
e 88 125
e 88 128
e 88 129
e 88 131
e 88 137
e 88 143
e 88 146
e 88 157
e 88 166
e 88 167
e 88 170
e 88 172
e 88 175
e 88 177
e 88 178
e 88 180
e 88 196
e 89 107
e 89 108
e 89 124
e 89 128
e 89 129
e 89 132
e 89 134
e 89 137
e 89 149
e 89 173
e 89 177
e 89 196
e 90 91
e 90 96
e 90 97
e 90 107
e 90 112
e 90 113
e 90 127
e 90 131
e 90 147
e 90 149
e 90 155
e 90 157
e 90 168
e 90 192
e 90 195
e 91 101
e 91 111
e 91 128
e 91 130
e 91 133
e 91 135
e 91 136
e 91 137
e 91 145
e 91 146
e 91 151
e 91 152
e 91 155
e 91 158
e 91 169
e 91 182
e 91 184
e 91 188
e 91 199
e 92 101
e 92 103
e 92 104
e 92 105
e 92 107
e 92 113
e 92 119
e 92 123
e 92 126
e 92 132
e 92 133
e 92 134
e 92 135
e 92 143
e 92 157
e 92 158
e 92 160
e 92 165
e 92 168
e 92 173
e 92 174
e 92 176
e 92 178
e 92 188
e 93 101
e 93 104
e 93 106
e 93 107
e 93 109
e 93 112
e 93 136
e 93 148
e 93 157
e 93 159
e 93 172
e 93 180
e 93 190
e 93 194
e 93 199
e 94 102
e 94 103
e 94 105
e 94 109
e 94 112
e 94 114
e 94 121
e 94 131
e 94 135
e 94 138
e 94 142
e 94 144
e 94 148
e 94 149
e 94 154
e 94 156
e 94 174
e 94 177
e 94 179
e 94 184
e 94 186
e 94 187
e 94 194
e 94 198
e 94 199
e 95 110
e 95 117
e 95 118
e 95 128
e 95 130
e 95 131
e 95 138
e 95 139
e 95 140
e 95 146
e 95 157
e 95 163
e 95 164
e 95 165
e 95 166
e 95 173
e 95 176
e 95 180
e 95 182
e 95 184
e 95 186
e 95 187
e 95 188
e 95 190
e 95 195
e 95 196
e 96 98
e 96 102
e 96 106
e 96 109
e 96 112
e 96 132
e 96 135
e 96 145
e 96 148
e 96 158
e 96 164
e 96 165
e 96 169
e 96 173
e 96 183
e 96 184
e 96 197
e 97 105
e 97 111
e 97 113
e 97 117
e 97 122
e 97 126
e 97 134
e 97 136
e 97 137
e 97 138
e 97 139
e 97 140
e 97 144
e 97 147
e 97 148
e 97 151
e 97 157
e 97 161
e 97 162
e 97 164
e 97 166
e 97 170
e 97 178
e 97 181
e 97 182
e 97 183
e 97 187
e 97 196
e 97 198
e 98 99
e 98 104
e 98 110
e 98 115
e 98 136
e 98 148
e 98 153
e 98 156
e 98 158
e 98 163
e 98 169
e 98 179
e 98 181
e 98 183
e 98 192
e 98 193
e 98 197
e 99 100
e 99 105
e 99 107
e 99 109
e 99 110
e 99 123
e 99 125
e 99 137
e 99 140
e 99 143
e 99 148
e 99 152
e 99 164
e 99 181
e 99 185
e 99 187
e 99 188
e 99 189
e 99 198
e 99 199
e 100 102
e 100 103
e 100 108
e 100 110
e 100 112
e 100 115
e 100 123
e 100 133
e 100 149
e 100 151
e 100 156
e 100 160
e 100 163
e 100 164
e 100 165
e 100 167
e 100 175
e 100 176
e 100 179
e 100 183
e 100 195
e 100 197
e 100 200
e 101 109
e 101 110
e 101 117
e 101 120
e 101 122
e 101 127
e 101 129
e 101 130
e 101 131
e 101 133
e 101 136
e 101 139
e 101 147
e 101 148
e 101 156
e 101 164
e 101 166
e 101 169
e 101 174
e 101 177
e 101 178
e 101 186
e 101 194
e 102 105
e 102 107
e 102 108
e 102 109
e 102 114
e 102 121
e 102 125
e 102 130
e 102 140
e 102 141
e 102 148
e 102 149
e 102 151
e 102 156
e 102 159
e 102 160
e 102 161
e 102 166
e 102 167
e 102 174
e 102 175
e 102 176
e 102 179
e 102 183
e 102 188
e 102 192
e 102 199
e 103 105
e 103 106
e 103 111
e 103 119
e 103 128
e 103 131
e 103 133
e 103 144
e 103 145
e 103 149
e 103 155
e 103 160
e 103 170
e 103 173
e 103 182
e 103 183
e 103 184
e 103 186
e 103 198
e 104 110
e 104 114
e 104 119
e 104 125
e 104 128
e 104 132
e 104 133
e 104 141
e 104 154
e 104 173
e 104 178
e 104 185
e 104 187
e 105 114
e 105 117
e 105 120
e 105 133
e 105 135
e 105 137
e 105 140
e 105 145
e 105 150
e 105 168
e 105 171
e 105 175
e 105 177
e 105 191
e 105 192
e 105 193
e 105 197
e 106 108
e 106 109
e 106 116
e 106 117
e 106 122
e 106 141
e 106 142
e 106 153
e 106 154
e 106 169
e 106 173
e 106 184
e 106 192
e 106 193
e 107 112
e 107 117
e 107 123
e 107 127
e 107 129
e 107 131
e 107 136
e 107 143
e 107 144
e 107 149
e 107 153
e 107 155
e 107 157
e 107 166
e 107 167
e 107 170
e 107 173
e 107 184
e 107 190
e 107 196
e 107 197
e 107 199
e 108 111
e 108 112
e 108 114
e 108 129
e 108 145
e 108 152
e 108 155
e 108 162
e 108 163
e 108 167
e 108 168
e 108 169
e 108 171
e 108 176
e 108 180
e 108 184
e 108 186
e 108 190
e 108 194
e 109 129
e 109 132
e 109 133
e 109 163
e 109 169
e 109 171
e 109 180
e 109 183
e 109 188
e 109 189
e 109 190
e 109 192
e 109 200
e 110 123
e 110 129
e 110 137
e 110 141
e 110 151
e 110 155
e 110 159
e 110 160
e 110 162
e 110 172
e 110 174
e 110 178
e 110 180
e 110 182
e 110 185
e 110 190
e 111 114
e 111 115
e 111 123
e 111 130
e 111 137
e 111 149
e 111 152
e 111 157
e 111 160
e 111 162
e 111 163
e 111 165
e 111 171
e 111 172
e 111 175
e 111 177
e 111 197
e 111 198
e 112 113
e 112 114
e 112 116
e 112 119
e 112 125
e 112 136
e 112 139
e 112 141
e 112 152
e 112 153
e 112 156
e 112 166
e 112 176
e 112 180
e 112 188
e 112 189
e 112 195
e 112 196
e 112 197
e 113 121
e 113 124
e 113 125
e 113 130
e 113 135
e 113 145
e 113 146
e 113 154
e 113 158
e 113 170
e 113 171
e 113 177
e 113 187
e 113 194
e 113 195
e 113 200
e 114 115
e 114 116
e 114 125
e 114 137
e 114 140
e 114 142
e 114 143
e 114 147
e 114 151
e 114 156
e 114 162
e 114 163
e 114 164
e 114 179
e 114 183
e 114 185
e 114 188
e 114 199
e 115 116
e 115 117
e 115 121
e 115 124
e 115 130
e 115 141
e 115 147
e 115 149
e 115 150
e 115 155
e 115 159
e 115 162
e 115 166
e 115 170
e 115 172
e 115 177
e 115 184
e 115 185
e 115 189
e 115 192
e 115 194
e 116 121
e 116 133
e 116 136
e 116 142
e 116 146
e 116 148
e 116 149
e 116 156
e 116 162
e 116 164
e 116 165
e 116 167
e 116 172
e 116 176
e 116 184
e 116 188
e 116 190
e 116 192
e 116 195
e 117 118
e 117 119
e 117 121
e 117 122
e 117 124
e 117 142
e 117 145
e 117 151
e 117 159
e 117 163
e 117 169
e 117 175
e 117 178
e 117 182
e 117 189
e 117 198
e 118 121
e 118 124
e 118 127
e 118 129
e 118 131
e 118 134
e 118 136
e 118 137
e 118 141
e 118 142
e 118 148
e 118 154
e 118 155
e 118 164
e 118 169
e 118 175
e 118 176
e 118 179
e 118 181
e 118 191
e 118 194
e 118 196
e 119 126
e 119 129
e 119 137
e 119 143
e 119 146
e 119 147
e 119 148
e 119 151
e 119 160
e 119 166
e 119 176
e 119 187
e 119 190
e 119 191
e 119 200
e 120 131
e 120 133
e 120 138
e 120 139
e 120 140
e 120 144
e 120 154
e 120 160
e 120 163
e 120 166
e 120 172
e 120 185
e 120 190
e 120 193
e 120 195
e 120 196
e 121 124
e 121 128
e 121 132
e 121 143
e 121 147
e 121 149
e 121 150
e 121 166
e 121 167
e 121 168
e 121 178
e 121 179
e 121 183
e 121 184
e 121 186
e 121 192
e 121 193
e 121 200
e 122 128
e 122 136
e 122 141
e 122 143
e 122 145
e 122 147
e 122 149
e 122 150
e 122 152
e 122 158
e 122 159
e 122 162
e 122 165
e 122 170
e 122 175
e 122 184
e 122 188
e 122 196
e 123 125
e 123 129
e 123 142
e 123 143
e 123 153
e 123 159
e 123 162
e 123 166
e 123 180
e 123 196
e 123 199
e 124 132
e 124 133
e 124 143
e 124 144
e 124 147
e 124 149
e 124 150
e 124 182
e 124 183
e 124 190
e 124 191
e 124 192
e 124 198
e 124 199
e 125 130
e 125 143
e 125 146
e 125 149
e 125 153
e 125 156
e 125 158
e 125 159
e 125 161
e 125 169
e 125 179
e 125 184
e 125 193
e 125 200
e 126 131
e 126 145
e 126 148
e 126 154
e 126 157
e 126 166
e 126 171
e 126 177
e 126 180
e 126 182
e 126 192
e 126 196
e 127 128
e 127 132
e 127 134
e 127 140
e 127 146
e 127 162
e 127 165
e 127 169
e 127 176
e 127 179
e 127 180
e 127 188
e 127 189
e 127 196
e 127 199
e 128 130
e 128 133
e 128 138
e 128 143
e 128 144
e 128 153
e 128 155
e 128 159
e 128 161
e 128 163
e 128 180
e 128 199
e 129 144
e 129 147
e 129 159
e 129 160
e 129 162
e 129 163
e 129 166
e 129 176
e 129 180
e 129 187
e 129 188
e 129 191
e 130 132
e 130 138
e 130 144
e 130 152
e 130 153
e 130 163
e 130 164
e 130 169
e 130 173
e 130 174
e 130 183
e 130 189
e 130 190
e 130 192
e 130 197
e 131 136
e 131 137
e 131 139
e 131 140
e 131 141
e 131 150
e 131 151
e 131 156
e 131 158
e 131 163
e 131 167
e 131 171
e 131 179
e 131 180
e 131 186
e 131 194
e 131 196
e 132 135
e 132 144
e 132 147
e 132 149
e 132 150
e 132 154
e 132 163
e 132 172
e 132 175
e 132 176
e 132 179
e 132 183
e 132 186
e 132 192
e 132 199
e 132 200
e 133 135
e 133 137
e 133 147
e 133 148
e 133 152
e 133 153
e 133 154
e 133 155
e 133 158
e 133 159
e 133 180
e 133 187
e 133 197
e 134 137
e 134 139
e 134 141
e 134 145
e 134 147
e 134 157
e 134 162
e 134 167
e 134 173
e 134 175
e 134 180
e 134 181
e 134 185
e 134 190
e 134 191
e 135 138
e 135 140
e 135 147
e 135 150
e 135 155
e 135 157
e 135 159
e 135 166
e 135 173
e 135 185
e 135 188
e 135 193
e 136 138
e 136 144
e 136 154
e 136 161
e 136 163
e 136 166
e 136 167
e 136 169
e 136 172
e 136 174
e 136 180
e 136 181
e 136 182
e 136 188
e 136 189
e 136 195
e 136 198
e 136 199
e 137 139
e 137 142
e 137 147
e 137 150
e 137 156
e 137 157
e 137 163
e 137 175
e 137 177
e 137 178
e 137 192
e 137 197
e 138 139
e 138 142
e 138 143
e 138 144
e 138 150
e 138 151
e 138 152
e 138 155
e 138 158
e 138 161
e 138 163
e 138 178
e 138 179
e 138 184
e 138 187
e 138 197
e 139 142
e 139 146
e 139 147
e 139 150
e 139 158
e 139 164
e 139 174
e 139 175
e 139 186
e 139 187
e 139 189
e 139 199
e 140 148
e 140 152
e 140 159
e 140 162
e 140 165
e 140 167
e 140 179
e 140 184
e 140 192
e 140 194
e 140 197
e 141 149
e 141 156
e 141 158
e 141 159
e 141 168
e 141 178
e 141 191
e 142 147
e 142 150
e 142 160
e 142 162
e 142 167
e 142 172
e 142 174
e 142 178
e 142 182
e 142 185
e 142 188
e 142 194
e 142 195
e 142 196
e 142 197
e 143 144
e 143 149
e 143 155
e 143 177
e 143 179
e 143 182
e 143 187
e 143 189
e 143 190
e 143 193
e 143 199
e 143 200
e 144 150
e 144 157
e 144 159
e 144 173
e 144 175
e 144 177
e 144 187
e 144 188
e 144 198
e 144 199
e 145 153
e 145 160
e 145 163
e 145 164
e 145 168
e 145 169
e 145 174
e 145 177
e 145 178
e 145 183
e 145 191
e 145 195
e 145 199
e 146 147
e 146 156
e 146 169
e 146 175
e 146 176
e 146 177
e 146 182
e 147 148
e 147 149
e 147 151
e 147 154
e 147 156
e 147 159
e 147 169
e 147 178
e 147 179
e 147 181
e 147 194
e 147 197
e 148 149
e 148 151
e 148 154
e 148 157
e 148 161
e 148 164
e 148 169
e 148 172
e 148 176
e 148 179
e 148 181
e 148 182
e 148 187
e 148 197
e 149 151
e 149 154
e 149 162
e 149 167
e 149 170
e 149 174
e 149 190
e 149 191
e 149 194
e 149 195
e 149 198
e 149 200
e 150 158
e 150 161
e 150 162
e 150 172
e 150 176
e 150 194
e 150 200
e 151 154
e 151 179
e 151 183
e 151 188
e 151 193
e 151 195
e 151 200
e 152 153
e 152 156
e 152 159
e 152 162
e 152 164
e 152 165
e 152 166
e 152 168
e 152 170
e 152 180
e 152 191
e 152 196
e 153 161
e 153 164
e 153 167
e 153 176
e 153 179
e 153 181
e 153 182
e 153 185
e 153 200
e 154 160
e 154 167
e 154 174
e 154 178
e 154 187
e 154 192
e 155 163
e 155 169
e 155 174
e 155 175
e 155 176
e 155 178
e 155 188
e 155 189
e 155 191
e 155 192
e 155 193
e 156 158
e 156 159
e 156 166
e 156 174
e 156 177
e 156 179
e 156 184
e 156 185
e 156 192
e 156 193
e 156 197
e 156 199
e 157 161
e 157 163
e 157 166
e 157 183
e 157 194
e 157 195
e 157 198
e 158 164
e 158 167
e 158 169
e 158 174
e 158 179
e 158 184
e 158 186
e 158 188
e 158 191
e 158 193
e 158 195
e 158 200
e 159 161
e 159 162
e 159 176
e 159 186
e 159 189
e 159 192
e 159 196
e 159 197
e 159 198
e 159 199
e 160 164
e 160 166
e 160 168
e 160 176
e 160 177
e 160 189
e 161 167
e 161 176
e 161 185
e 161 190
e 161 192
e 161 195
e 162 163
e 162 173
e 162 178
e 162 184
e 162 186
e 162 191
e 162 192
e 162 197
e 163 166
e 163 168
e 163 171
e 163 172
e 163 176
e 163 180
e 163 184
e 163 187
e 163 192
e 164 170
e 164 175
e 164 179
e 164 182
e 164 185
e 164 195
e 164 196
e 164 200
e 165 182
e 165 188
e 165 192
e 165 194
e 165 195
e 165 198
e 166 167
e 166 172
e 166 173
e 166 174
e 166 181
e 166 186
e 166 199
e 167 187
e 167 189
e 167 191
e 167 197
e 167 198
e 167 199
e 168 170
e 168 172
e 168 175
e 168 177
e 168 186
e 168 193
e 168 194
e 168 195
e 168 198
e 169 170
e 169 171
e 169 173
e 169 175
e 169 182
e 169 185
e 169 187
e 169 188
e 169 195
e 170 171
e 170 177
e 170 178
e 170 180
e 170 182
e 170 187
e 170 191
e 170 197
e 171 172
e 171 175
e 171 180
e 171 182
e 171 185
e 171 186
e 171 194
e 171 195
e 171 196
e 171 198
e 172 175
e 172 183
e 172 185
e 172 193
e 173 178
e 173 182
e 173 185
e 173 187
e 173 190
e 173 191
e 174 177
e 174 193
e 174 198
e 174 200
e 175 176
e 175 179
e 175 182
e 175 184
e 175 191
e 175 194
e 175 197
e 175 199
e 176 180
e 176 183
e 176 194
e 176 195
e 176 197
e 176 198
e 177 181
e 177 184
e 177 193
e 177 199
e 178 179
e 178 186
e 178 194
e 178 199
e 179 180
e 179 183
e 179 184
e 179 191
e 179 192
e 180 185
e 180 194
e 181 184
e 181 189
e 181 190
e 181 192
e 181 193
e 181 194
e 181 200
e 182 183
e 182 186
e 182 193
e 182 196
e 182 198
e 183 187
e 183 191
e 183 192
e 183 194
e 183 200
e 184 186
e 184 188
e 184 192
e 184 195
e 185 195
e 185 199
e 187 188
e 187 189
e 187 191
e 187 197
e 188 190
e 188 199
e 191 193
e 191 197
e 192 199
e 193 196
e 194 195
e 195 197
e 196 198
